Data path: /scratch/opt/lxu/CFLG/benchmarks/tree_B
Instance: treeB.500.25
Result path: /scratch/opt/lxu/CFLG/results/tree_B
Solver: Gurobi
Time limit: 7200
Formulation: LEFPA
Cover: Large
julia --project=. src/main.jl /scratch/opt/lxu/CFLG/benchmarks/tree_B treeB.500.25 /scratch/opt/lxu/CFLG/results/tree_B Gurobi 7200 LEFPA Large
The latest version of Julia in the `release` channel is 1.11.5+0.x64.linux.gnu. You currently have `1.11.4+0.x64.linux.gnu` installed. Run:

  juliaup update

in your terminal shell to install Julia 1.11.5+0.x64.linux.gnu and update the `release` channel to that version.
/scratch/opt/lxu/CFLG/benchmarks/tree_B Gurobi 7200.0 /scratch/opt/lxu/CFLG/results/tree_B treeB.500.25 LEFPA Large
/scratch/opt/lxu/CFLG/benchmarks/tree_B/treeB.500.25

 read graph
data loaded

problem_graph/original graph: node: 500/500 edge: 524/524 dlt: 3.039576560023685 break_avg_len: 1.5197882800118425 break_max_len: 1.9995724168774514Vbar/V, Ebar/E(148, 500, 172, 524)
Set parameter TokenServer to value "solice01.zib.de"
Set parameter Threads to value 1
Set parameter OutputFlag to value 1
Gurobi Optimizer version 12.0.1 build v12.0.1rc0 (linux64 - "Debian GNU/Linux 12 (bookworm)")

CPU model: Intel(R) Xeon(R) Gold 5222 CPU @ 3.80GHz, instruction set [SSE2|AVX|AVX2|AVX512]
Thread count: 8 physical cores, 16 logical processors, using up to 1 threads

Non-default parameters:
Threads  1

Optimize a model with 460 rows, 726 columns and 1210 nonzeros
Model fingerprint: 0xc37af36d
Coefficient statistics:
  Matrix range     [1e+00, 1e+00]
  Objective range  [1e+00, 1e+00]
  Bounds range     [1e+00, 1e+00]
  RHS range        [1e+00, 1e+00]
Presolve removed 460 rows and 726 columns
Presolve time: 0.00s
Presolve: All rows and columns removed
Iteration    Objective       Primal Inf.    Dual Inf.      Time
       0    7.0000000e+01   0.000000e+00   0.000000e+00      0s

Solved in 0 iterations and 0.00 seconds (0.00 work units)
Optimal objective  7.000000000e+01

User-callback calls 35, time in user-callback 0.00 sec
elapsed CPU time: 1.09817 seconds
Set parameter TokenServer to value "solice01.zib.de"
Set parameter Threads to value 1
Set parameter OutputFlag to value 1
Set parameter MIPGap to value 0.0001
Set parameter MIPGapAbs to value 0.999998
Set parameter TimeLimit to value 7198.90183

 more cuts: false 3.039576560023685 false
is_attach:trueformulation:LEFPA0 242 0

 model loaded

Gurobi Optimizer version 12.0.1 build v12.0.1rc0 (linux64 - "Debian GNU/Linux 12 (bookworm)")

CPU model: Intel(R) Xeon(R) Gold 5222 CPU @ 3.80GHz, instruction set [SSE2|AVX|AVX2|AVX512]
Thread count: 8 physical cores, 16 logical processors, using up to 1 threads

Non-default parameters:
TimeLimit  7198.90183
MIPGapAbs  0.999998
Threads  1

Optimize a model with 6726 rows, 3973 columns and 18448 nonzeros
Model fingerprint: 0x8faf489e
Variable types: 702 continuous, 3271 integer (3271 binary)
Coefficient statistics:
  Matrix range     [1e-06, 6e+00]
  Objective range  [1e+00, 1e+00]
  Bounds range     [6e-03, 3e+00]
  RHS range        [1e-06, 6e+00]
Presolve removed 4387 rows and 2367 columns
Presolve time: 0.09s
Presolved: 2339 rows, 1606 columns, 9798 nonzeros
Variable types: 290 continuous, 1316 integer (1316 binary)
Found heuristic solution: objective 268.0000000
Found heuristic solution: objective 263.0000000
Found heuristic solution: objective 197.0000000

Root relaxation: objective 1.209870e+02, 1438 iterations, 0.01 seconds (0.01 work units)

    Nodes    |    Current Node    |     Objective Bounds      |     Work
 Expl Unexpl |  Obj  Depth IntInf | Incumbent    BestBd   Gap | It/Node Time

     0     0  120.98702    0  376  197.00000  120.98702  38.6%     -    0s
H    0     0                     192.0000000  120.98702  37.0%     -    0s
H    0     0                     166.0000000  120.98702  27.1%     -    0s
H    0     0                     153.0000000  120.98702  20.9%     -    0s
     0     0  128.99577    0  404  153.00000  128.99577  15.7%     -    0s
H    0     0                     152.0000000  128.99577  15.1%     -    0s
H    0     0                     151.0000000  128.99577  14.6%     -    0s
     0     0  129.28998    0  421  151.00000  129.28998  14.4%     -    0s
     0     0  129.29735    0  408  151.00000  129.29735  14.4%     -    0s
     0     0  129.29735    0  409  151.00000  129.29735  14.4%     -    0s
     0     0  132.28886    0  322  151.00000  132.28886  12.4%     -    0s
     0     0  132.41232    0  289  151.00000  132.41232  12.3%     -    0s
     0     0  132.43344    0  297  151.00000  132.43344  12.3%     -    0s
     0     0  132.43609    0  339  151.00000  132.43609  12.3%     -    0s
     0     0  133.92581    0  297  151.00000  133.92581  11.3%     -    0s
     0     0  134.09524    0  278  151.00000  134.09524  11.2%     -    0s
     0     0  134.09524    0  278  151.00000  134.09524  11.2%     -    0s
     0     0  135.16667    0  264  151.00000  135.16667  10.5%     -    0s
H    0     0                     149.0000000  135.16667  9.28%     -    0s
H    0     0                     147.0000000  135.16667  8.05%     -    0s
     0     0  135.16667    0  258  147.00000  135.16667  8.05%     -    0s
     0     0  135.16667    0  246  147.00000  135.16667  8.05%     -    0s
     0     0  135.16667    0  264  147.00000  135.16667  8.05%     -    0s
     0     0  135.16667    0   91  147.00000  135.16667  8.05%     -    0s
     0     0  135.33333    0  200  147.00000  135.33333  7.94%     -    0s
     0     0  135.33333    0  180  147.00000  135.33333  7.94%     -    0s
H    0     0                     146.0000000  135.33333  7.31%     -    0s
     0     0  135.33333    0  196  146.00000  135.33333  7.31%     -    0s
     0     0  135.33333    0  205  146.00000  135.33333  7.31%     -    0s
     0     0  135.33333    0  186  146.00000  135.33333  7.31%     -    0s
     0     0  135.33333    0   99  146.00000  135.33333  7.31%     -    0s
H    0     0                     145.0000000  135.33333  6.67%     -    0s
H    0     0                     144.0000000  135.33333  6.02%     -    0s
     0     0  135.33333    0  198  144.00000  135.33333  6.02%     -    0s
     0     0  135.33333    0  176  144.00000  135.33333  6.02%     -    0s
     0     0  135.33333    0  193  144.00000  135.33333  6.02%     -    0s
     0     0  135.33333    0  198  144.00000  135.33333  6.02%     -    0s
     0     0  135.33333    0  212  144.00000  135.33333  6.02%     -    0s
     0     0  135.33333    0  203  144.00000  135.33333  6.02%     -    0s
     0     0  135.33333    0  141  144.00000  135.33333  6.02%     -    0s
H    0     0                     143.0000000  135.33333  5.36%     -    0s
H    0     0                     142.0000000  135.33333  4.69%     -    0s
H    0     0                     141.0000000  135.33333  4.02%     -    0s
     0     2  135.72222    0  131  141.00000  135.72222  3.74%     -    0s
H  703   523                     140.0000000  137.08952  2.08%  44.8    3s
  1296   699  138.05480   27  207  140.00000  137.50000  1.79%  40.8    5s
  3617  1503  139.00000   35  109  140.00000  138.00000  1.43%  36.8   10s
  5732  2327  138.00000   21  147  140.00000  138.00000  1.43%  36.7   15s
  7731  3039  139.00000   50   30  140.00000  138.00000  1.43%  38.1   20s
 10203  3935  138.00000   23  141  140.00000  138.00000  1.43%  37.7   29s
 10210  3940  138.00000   24  135  140.00000  138.00000  1.43%  37.7   30s
 10731  3988  138.12500   27  124  140.00000  138.00000  1.43%  39.2   35s
 11436  4113  139.00000   47  116  140.00000  138.00000  1.43%  38.5   40s
 14318  4387  138.91588   41  142  140.00000  138.29797  1.22%  35.6   45s
 18096  4593  139.00000   41   38  140.00000  139.00000  0.71%  32.5   50s
 21726  4432     cutoff   63       140.00000  139.00000  0.71%  30.3   55s
 25282  4776  139.00000   59   55  140.00000  139.00000  0.71%  28.6   60s
 28838  5054  139.00000   54   25  140.00000  139.00000  0.71%  27.6   65s
 32325  5292  139.00000   51   32  140.00000  139.00000  0.71%  27.0   70s
 35757  5470  139.00000   56   54  140.00000  139.00000  0.71%  26.4   75s
 39132  5745  139.00000   64   51  140.00000  139.00000  0.71%  26.2   80s
 42577  5763  139.00000   77   73  140.00000  139.00000  0.71%  26.0   85s
 45901  5934     cutoff   65       140.00000  139.00000  0.71%  25.9   90s
 49329  6366  139.00000   48   76  140.00000  139.00000  0.71%  25.8   95s
 52538  6525     cutoff   60       140.00000  139.00000  0.71%  25.9  100s
 55770  6729     cutoff   46       140.00000  139.00000  0.71%  25.9  105s
 59094  6882  139.00000   58   32  140.00000  139.00000  0.71%  25.9  110s
 62472  7107     cutoff   59       140.00000  139.00000  0.71%  25.9  115s
 65696  7317     cutoff   69       140.00000  139.00000  0.71%  25.9  120s
 68888  7564  139.00000   59   61  140.00000  139.00000  0.71%  26.0  125s
 71951  7944  139.00000   48   61  140.00000  139.00000  0.71%  26.3  130s
 75110  7966  139.00000   69   51  140.00000  139.00000  0.71%  26.3  135s
 78048  7947     cutoff   73       140.00000  139.00000  0.71%  26.4  140s
 80997  7899     cutoff   58       140.00000  139.00000  0.71%  26.7  145s
 84201  7830  139.00000   52   22  140.00000  139.00000  0.71%  26.6  150s
 87362  7761  139.00000   45   45  140.00000  139.00000  0.71%  26.7  155s
 90342  7883     cutoff   59       140.00000  139.00000  0.71%  26.8  160s
 93559  7730     cutoff   71       140.00000  139.00000  0.71%  26.8  165s
 96886  7551     cutoff   66       140.00000  139.00000  0.71%  26.8  170s
 99665  7556  139.00000   62   36  140.00000  139.00000  0.71%  26.9  175s
 102862  7493  139.00000   52   40  140.00000  139.00000  0.71%  26.9  180s
 105981  7397     cutoff   70       140.00000  139.00000  0.71%  26.9  185s
 108856  7311  139.00000   63   48  140.00000  139.00000  0.71%  27.1  190s
 111988  7092  139.00000   69   22  140.00000  139.00000  0.71%  27.1  195s
 115082  6963  139.00000   48   78  140.00000  139.00000  0.71%  27.1  200s
 118131  6818  139.00000   49   61  140.00000  139.00000  0.71%  27.2  205s
 121215  6752  139.00000   60   68  140.00000  139.00000  0.71%  27.2  210s
 124280  6664  139.00000   45   72  140.00000  139.00000  0.71%  27.2  215s
 127274  6542  139.00000   49   86  140.00000  139.00000  0.71%  27.2  220s
 130269  6450  139.00000   67   87  140.00000  139.00000  0.71%  27.3  225s
 133208  6172     cutoff   84       140.00000  139.00000  0.71%  27.3  230s
 135758  6081  139.00000   52   68  140.00000  139.00000  0.71%  27.3  235s
 139116  5917  139.00000   43   50  140.00000  139.00000  0.71%  27.2  240s
 142431  5772  139.00000   44   73  140.00000  139.00000  0.71%  27.2  245s
 145586  5772  139.00000   46   56  140.00000  139.00000  0.71%  27.2  250s
 148767  5821  139.00000   86   67  140.00000  139.00000  0.71%  27.2  255s
 151912  5724  139.00000   61   60  140.00000  139.00000  0.71%  27.3  260s
 155372  5699     cutoff   48       140.00000  139.00000  0.71%  27.2  265s
 158799  5657     cutoff   50       140.00000  139.00000  0.71%  27.1  270s
 161943  5520  139.00000   53   67  140.00000  139.00000  0.71%  27.2  275s
 164905  5427  139.00000   54   84  140.00000  139.00000  0.71%  27.1  280s
 168333  5364     cutoff   66       140.00000  139.00000  0.71%  27.1  285s
 171651  5173  139.00000   43   82  140.00000  139.00000  0.71%  27.1  290s
 175238  5143  139.00000   82   61  140.00000  139.00000  0.71%  27.0  295s
 178595  5011 infeasible   60       140.00000  139.00000  0.71%  27.0  300s
 181939  5117  139.00000   60   75  140.00000  139.00000  0.71%  27.0  305s
 184468  5115     cutoff   61       140.00000  139.00000  0.71%  27.2  310s
 187385  5019     cutoff   64       140.00000  139.00000  0.71%  27.3  315s
 190759  4885  139.00000   44   75  140.00000  139.00000  0.71%  27.2  320s
 194332  4735     cutoff   60       140.00000  139.00000  0.71%  27.1  325s
 197380  4767     cutoff   62       140.00000  139.00000  0.71%  27.2  330s
 200353  4640     cutoff   62       140.00000  139.00000  0.71%  27.2  335s
 203381  4537  139.00000   50   97  140.00000  139.00000  0.71%  27.2  340s
 206686  4482  139.00000   61   89  140.00000  139.00000  0.71%  27.2  345s
 210274  4492  139.00000   68   43  140.00000  139.00000  0.71%  27.1  350s
 213551  4429  139.00000   46   57  140.00000  139.00000  0.71%  27.0  355s
 216914  4297  139.00000   53   67  140.00000  139.00000  0.71%  27.0  360s
 219917  4211  139.00000   48   42  140.00000  139.00000  0.71%  27.0  365s
 223004  3994  139.00000   51  126  140.00000  139.00000  0.71%  27.0  370s
 225998  3928  139.00000   43   65  140.00000  139.00000  0.71%  27.0  375s
 228920  3891     cutoff   64       140.00000  139.00000  0.71%  27.0  380s
 231918  3955     cutoff   86       140.00000  139.00000  0.71%  27.1  385s
 234716  4017  139.00000   68   59  140.00000  139.00000  0.71%  27.2  390s
 237705  3794     cutoff   47       140.00000  139.00000  0.71%  27.2  395s
 241193  3693  139.00000   58   43  140.00000  139.00000  0.71%  27.1  400s
 244379  3542     cutoff   46       140.00000  139.00000  0.71%  27.1  405s
 247505  3475 infeasible   64       140.00000  139.00000  0.71%  27.1  410s
 250773  3396  139.00000   40   81  140.00000  139.00000  0.71%  27.1  415s
 254116  3473  139.00000   63   38  140.00000  139.00000  0.71%  27.0  420s
 256704  3614  139.00000   42   61  140.00000  139.00000  0.71%  27.0  425s
 260203  3599  139.00000   47   86  140.00000  139.00000  0.71%  26.9  430s
 263517  3472     cutoff   56       140.00000  139.00000  0.71%  26.9  435s
 266549  3356  139.00000   61   88  140.00000  139.00000  0.71%  26.9  440s
 269450  3341  139.00000   56   43  140.00000  139.00000  0.71%  26.9  445s
 272823  3319  139.00000   79   55  140.00000  139.00000  0.71%  26.8  450s
 275663  3268  139.00000   46  102  140.00000  139.00000  0.71%  26.9  455s
 278935  3290  139.00000   55   74  140.00000  139.00000  0.71%  26.8  460s
 282244  3287  139.00000   77   69  140.00000  139.00000  0.71%  26.8  465s
 285488  3236  139.00000   56   70  140.00000  139.00000  0.71%  26.8  470s
 288895  3226  139.00000   44  107  140.00000  139.00000  0.71%  26.7  475s
 292080  3069  139.00000   48   73  140.00000  139.00000  0.71%  26.7  480s
 295609  2998     cutoff   74       140.00000  139.00000  0.71%  26.7  485s
 299031  2926  139.00000   59   41  140.00000  139.00000  0.71%  26.6  490s
 302167  2865  139.00000   52   70  140.00000  139.00000  0.71%  26.6  495s
 305601  2840  139.00000   53   51  140.00000  139.00000  0.71%  26.5  500s
 308895  2738  139.00000   48   95  140.00000  139.00000  0.71%  26.5  505s
 312464  2790  139.00000   53   31  140.00000  139.00000  0.71%  26.4  510s
 316011  2710  139.00000   52   80  140.00000  139.00000  0.71%  26.3  515s
 319439  2694     cutoff   50       140.00000  139.00000  0.71%  26.3  520s
 322778  2645  139.00000   47   99  140.00000  139.00000  0.71%  26.3  525s
 326181  2548  139.00000   50   64  140.00000  139.00000  0.71%  26.3  530s
 329128  2562  139.00000   55   56  140.00000  139.00000  0.71%  26.2  535s
 332251  2514     cutoff   49       140.00000  139.00000  0.71%  26.2  540s
 335586  2440     cutoff   44       140.00000  139.00000  0.71%  26.2  545s
 339020  2330     cutoff   56       140.00000  139.00000  0.71%  26.2  550s
 342510  2412  139.00000   66   87  140.00000  139.00000  0.71%  26.1  555s
 345702  2397  139.00000   69   82  140.00000  139.00000  0.71%  26.1  560s
 349165  2344  139.00000   58   85  140.00000  139.00000  0.71%  26.1  565s
 352818  2349     cutoff   55       140.00000  139.00000  0.71%  26.0  570s
 355701  2424  139.00000   70   59  140.00000  139.00000  0.71%  26.0  575s
 359123  2412  139.00000   76   97  140.00000  139.00000  0.71%  26.0  580s
 362709  2346  139.00000   54   67  140.00000  139.00000  0.71%  25.9  585s
 366027  2352     cutoff   82       140.00000  139.00000  0.71%  25.9  590s
 369140  2370     cutoff   58       140.00000  139.00000  0.71%  25.9  595s
 372337  2338  139.00000   64   16  140.00000  139.00000  0.71%  25.9  600s
 375648  2239  139.00000   49  128  140.00000  139.00000  0.71%  25.9  605s
 379213  2198     cutoff   65       140.00000  139.00000  0.71%  25.9  610s
 382117  2139  139.00000   56   92  140.00000  139.00000  0.71%  25.9  615s
 385589  2154  139.00000   57   90  140.00000  139.00000  0.71%  25.8  620s
 389235  2195  139.00000   50   57  140.00000  139.00000  0.71%  25.8  625s
 392795  2140  139.00000   49   55  140.00000  139.00000  0.71%  25.7  630s
 396239  2097     cutoff   46       140.00000  139.00000  0.71%  25.7  635s
 399349  2119  139.00000   60   60  140.00000  139.00000  0.71%  25.7  640s
 403199  2123  139.00000   63   75  140.00000  139.00000  0.71%  25.7  645s
 406674  2101  139.00000   62   78  140.00000  139.00000  0.71%  25.6  650s
 409709  2114  139.00000   60   73  140.00000  139.00000  0.71%  25.7  655s
 413421  2117  139.00000   67   36  140.00000  139.00000  0.71%  25.6  660s
 416807  2061  139.00000   56  133  140.00000  139.00000  0.71%  25.6  665s
 420342  2048     cutoff   61       140.00000  139.00000  0.71%  25.5  670s
 424270  2032  139.00000   59   47  140.00000  139.00000  0.71%  25.5  675s
 428075  1990  139.00000   56   43  140.00000  139.00000  0.71%  25.4  680s
 431527  1998  139.00000   57   64  140.00000  139.00000  0.71%  25.3  685s
 435218  1937  139.00000   47   71  140.00000  139.00000  0.71%  25.3  690s
 438624  1848  139.00000   51   82  140.00000  139.00000  0.71%  25.3  695s
 442223  1771  139.00000   48  146  140.00000  139.00000  0.71%  25.3  700s
 445978  1714  139.00000   61  118  140.00000  139.00000  0.71%  25.2  705s
 449222  1712  139.00000   48  221  140.00000  139.00000  0.71%  25.2  710s
 452648  1713     cutoff   67       140.00000  139.00000  0.71%  25.2  715s
 456454  1698  139.00000   55   95  140.00000  139.00000  0.71%  25.1  720s
 459716  1584     cutoff   56       140.00000  139.00000  0.71%  25.1  725s
 463550  1567  139.00000   44  125  140.00000  139.00000  0.71%  25.1  730s
 467106  1487  139.00000   36  156  140.00000  139.00000  0.71%  25.0  735s
 470683  1395  139.00000   51   91  140.00000  139.00000  0.71%  25.0  740s
 474631  1280  139.00000   48  108  140.00000  139.00000  0.71%  25.0  745s
 478183  1205  139.00000   80   40  140.00000  139.00000  0.71%  25.0  750s
 481040  1064  139.00000   45  116  140.00000  139.00000  0.71%  24.9  755s
 484545   988     cutoff   59       140.00000  139.00000  0.71%  24.9  760s
 487753   822  139.00000   70   54  140.00000  139.00000  0.71%  24.9  765s
 491848   830  139.00000   47   68  140.00000  139.00000  0.71%  24.9  770s
 496453   869     cutoff   68       140.00000  139.00000  0.71%  24.8  775s
 500026   831  139.00000   61   41  140.00000  139.00000  0.71%  24.7  780s
 504320   822  139.00000   55   49  140.00000  139.00000  0.71%  24.7  785s
 508335   831  139.00000   54   62  140.00000  139.00000  0.71%  24.6  790s
 511487   811     cutoff   56       140.00000  139.00000  0.71%  24.6  795s
 515018   669  139.00000   41  172  140.00000  139.00000  0.71%  24.6  800s
 518771   639     cutoff   58       140.00000  139.00000  0.71%  24.6  805s
 522214   606  139.00000   46   58  140.00000  139.00000  0.71%  24.6  810s
 525509   626     cutoff   61       140.00000  139.00000  0.71%  24.6  815s
 529027   526  139.00000   47   55  140.00000  139.00000  0.71%  24.6  820s
 532497   556  139.00000   71   13  140.00000  139.00000  0.71%  24.5  825s
 536673   514  139.00000   49   85  140.00000  139.00000  0.71%  24.5  830s
 540214   503     cutoff   73       140.00000  139.00000  0.71%  24.5  835s
 543455   462 infeasible   72       140.00000  139.00000  0.71%  24.5  840s
 546670   465     cutoff   71       140.00000  139.00000  0.71%  24.5  845s
 550271   445     cutoff   58       140.00000  139.00000  0.71%  24.5  850s
 553965   325     cutoff   42       140.00000  139.00000  0.71%  24.5  855s
 557373   325  139.00000   73    4  140.00000  139.00000  0.71%  24.5  860s
 560740   216     cutoff   62       140.00000  139.00000  0.71%  24.5  865s

Cutting planes:
  Learned: 4
  Gomory: 57
  Cover: 118
  Implied bound: 42
  Clique: 2
  MIR: 102
  Mixing: 1
  StrongCG: 11
  Flow cover: 319
  GUB cover: 60
  Inf proof: 10
  Zero half: 115
  RLT: 26
  Relax-and-lift: 29
  BQP: 9

Explored 563985 nodes (13827652 simplex iterations) in 870.01 seconds (700.25 work units)
Thread count was 1 (of 16 available processors)

Solution count 10: 140 140 141 ... 145

Optimal solution found (tolerance 1.00e-04)
Best objective 1.400000000000e+02, best bound 1.390000182588e+02, gap 0.7143%

User-callback calls 1470707, time in user-callback 1.11 sec

 sepatime0 0 0
140.0Stat(MathOptInterface.OPTIMAL, 140.0, 139.0000182588158, 0.0071427267227442874, 0.0, 1.09817, 870.0102820396423, 563985, Main.CFLG.LEFPA, "", #undef)
